NAME decomposition_srl_ilp
* Max problem is converted into Min one
ROWS
 N  OBJ
 L  constraint1_2060
 L  constraint1_2061
 L  constraint1_2062
 L  constraint1_400
 L  constraint1_2590
 L  constraint1_3160
 L  constraint1_3610
 L  constraint1_851
 L  constraint1_850
 L  constraint2_2060
 L  constraint2_2061
 L  constraint2_2062
 L  constraint2_2063
 L  constraint2_400
 L  constraint2_401
 L  constraint2_402
 L  constraint2_403
 L  constraint2_2590
 L  constraint2_2591
 L  constraint2_2592
 L  constraint2_2593
 L  constraint2_3160
 L  constraint2_3161
 L  constraint2_3162
 L  constraint2_3163
 L  constraint2_3610
 L  constraint2_3611
 L  constraint2_3612
 L  constraint2_3613
 L  constraint2_850
 L  constraint2_851
 L  constraint2_852
 L  constraint2_853
COLUMNS
    MARKER    'MARKER'                 'INTORG'
    Z_206_0_0  OBJ       -1.8132511397912822e-04
    Z_206_0_0  constraint1_2060  1
    Z_206_0_0  constraint2_2060  1
    Z_206_0_1  OBJ       -3.4275693175629673e-03
    Z_206_0_1  constraint1_2060  1
    Z_206_0_1  constraint2_2061  1
    Z_206_0_2  OBJ       -8.0010297677144326e-01
    Z_206_0_2  constraint1_2060  1
    Z_206_0_2  constraint2_2062  1
    Z_206_0_3  OBJ       -9.7633867195388282e-04
    Z_206_0_3  constraint1_2060  1
    Z_206_0_3  constraint2_2063  1
    Z_206_0_4  OBJ       -9.5311790125060816e-02
    Z_206_0_4  constraint1_2060  1
    Z_206_1_0  OBJ       -6.4179827252607647e-03
    Z_206_1_0  constraint1_2061  1
    Z_206_1_0  constraint2_2060  1
    Z_206_1_1  OBJ       -3.4140706935813017e-02
    Z_206_1_1  constraint1_2061  1
    Z_206_1_1  constraint2_2061  1
    Z_206_1_2  OBJ       -4.4828752503113030e-02
    Z_206_1_2  constraint1_2061  1
    Z_206_1_2  constraint2_2062  1
    Z_206_1_3  OBJ       -1.8662747299017641e-02
    Z_206_1_3  constraint1_2061  1
    Z_206_1_3  constraint2_2063  1
    Z_206_1_4  OBJ       -7.9594981053679570e-01
    Z_206_1_4  constraint1_2061  1
    Z_206_2_0  OBJ       -5.6568636007970430e-01
    Z_206_2_0  constraint1_2062  1
    Z_206_2_0  constraint2_2060  1
    Z_206_2_1  OBJ       -1.0452835472624881e-01
    Z_206_2_1  constraint1_2062  1
    Z_206_2_1  constraint2_2061  1
    Z_206_2_2  OBJ       -1.2516677412092916e-02
    Z_206_2_2  constraint1_2062  1
    Z_206_2_2  constraint2_2062  1
    Z_206_2_3  OBJ       -1.4769773062824856e-02
    Z_206_2_3  constraint1_2062  1
    Z_206_2_3  constraint2_2063  1
    Z_206_2_4  OBJ       -2.0249883471912922e-01
    Z_206_2_4  constraint1_2062  1
    Z_40_0_0  OBJ       -1.6743965103028168e-03
    Z_40_0_0  constraint1_400  1
    Z_40_0_0  constraint2_400  1
    Z_40_0_1  OBJ       -7.9585528713173792e-04
    Z_40_0_1  constraint1_400  1
    Z_40_0_1  constraint2_401  1
    Z_40_0_2  OBJ       -1.4698588511602411e-03
    Z_40_0_2  constraint1_400  1
    Z_40_0_2  constraint2_402  1
    Z_40_0_3  OBJ       -5.0243485630589857e-01
    Z_40_0_3  constraint1_400  1
    Z_40_0_3  constraint2_403  1
    Z_40_0_4  OBJ       -3.9362503304550667e-01
    Z_40_0_4  constraint1_400  1
    Z_259_0_0  OBJ       -2.3275351193064878e-03
    Z_259_0_0  constraint1_2590  1
    Z_259_0_0  constraint2_2590  1
    Z_259_0_1  OBJ       -1.1518244827175270e-02
    Z_259_0_1  constraint1_2590  1
    Z_259_0_1  constraint2_2591  1
    Z_259_0_2  OBJ       -2.2310041399153159e-03
    Z_259_0_2  constraint1_2590  1
    Z_259_0_2  constraint2_2592  1
    Z_259_0_3  OBJ       -5.0123761657780552e-01
    Z_259_0_3  constraint1_2590  1
    Z_259_0_3  constraint2_2593  1
    Z_259_0_4  OBJ       -3.8268559933579743e-01
    Z_259_0_4  constraint1_2590  1
    Z_316_0_0  OBJ       -7.1766243951057961e-04
    Z_316_0_0  constraint1_3160  1
    Z_316_0_0  constraint2_3160  1
    Z_316_0_1  OBJ       -5.7446205362539984e-03
    Z_316_0_1  constraint1_3160  1
    Z_316_0_1  constraint2_3161  1
    Z_316_0_2  OBJ       -1.4642500511053277e-02
    Z_316_0_2  constraint1_3160  1
    Z_316_0_2  constraint2_3162  1
    Z_316_0_3  OBJ       -1.6122973032907389e-01
    Z_316_0_3  constraint1_3160  1
    Z_316_0_3  constraint2_3163  1
    Z_316_0_4  OBJ       -7.1766548618410841e-01
    Z_316_0_4  constraint1_3160  1
    Z_361_0_0  OBJ       -9.0510902196351626e-04
    Z_361_0_0  constraint1_3610  1
    Z_361_0_0  constraint2_3610  1
    Z_361_0_1  OBJ       -7.4252156802519481e-02
    Z_361_0_1  constraint1_3610  1
    Z_361_0_1  constraint2_3611  1
    Z_361_0_2  OBJ       -3.2892343336517168e-03
    Z_361_0_2  constraint1_3610  1
    Z_361_0_2  constraint2_3612  1
    Z_361_0_3  OBJ       -6.2867956795095581e-01
    Z_361_0_3  constraint1_3610  1
    Z_361_0_3  constraint2_3613  1
    Z_361_0_4  OBJ       -1.9287393189090968e-01
    Z_361_0_4  constraint1_3610  1
    Z_85_1_0  OBJ       -2.6976392331729058e-04
    Z_85_1_0  constraint1_851  1
    Z_85_1_0  constraint2_850  1
    Z_85_1_1  OBJ       -1.5855974195470529e-04
    Z_85_1_1  constraint1_851  1
    Z_85_1_1  constraint2_851  1
    Z_85_1_2  OBJ       -8.6544757621369850e-01
    Z_85_1_2  constraint1_851  1
    Z_85_1_2  constraint2_852  1
    Z_85_1_3  OBJ       -7.2407389983947081e-03
    Z_85_1_3  constraint1_851  1
    Z_85_1_3  constraint2_853  1
    Z_85_1_4  OBJ       -2.6883361122634758e-02
    Z_85_1_4  constraint1_851  1
    Z_85_0_0  OBJ       -2.4600468513761896e-03
    Z_85_0_0  constraint1_850  1
    Z_85_0_0  constraint2_850  1
    Z_85_0_1  OBJ       -8.9277029854924722e-02
    Z_85_0_1  constraint1_850  1
    Z_85_0_1  constraint2_851  1
    Z_85_0_2  OBJ       -5.2806466188394336e-03
    Z_85_0_2  constraint1_850  1
    Z_85_0_2  constraint2_852  1
    Z_85_0_3  OBJ       -7.5714577420486984e-01
    Z_85_0_3  constraint1_850  1
    Z_85_0_3  constraint2_853  1
    Z_85_0_4  OBJ       -4.5836502469989708e-02
    Z_85_0_4  constraint1_850  1
    MARKER    'MARKER'                 'INTEND'
RHS
    RHS1      constraint1_2060  1
    RHS1      constraint1_2061  1
    RHS1      constraint1_2062  1
    RHS1      constraint1_400  1
    RHS1      constraint1_2590  1
    RHS1      constraint1_3160  1
    RHS1      constraint1_3610  1
    RHS1      constraint1_851  1
    RHS1      constraint1_850  1
    RHS1      constraint2_2060  1
    RHS1      constraint2_2061  1
    RHS1      constraint2_2062  1
    RHS1      constraint2_2063  1
    RHS1      constraint2_400  1
    RHS1      constraint2_401  1
    RHS1      constraint2_402  1
    RHS1      constraint2_403  1
    RHS1      constraint2_2590  1
    RHS1      constraint2_2591  1
    RHS1      constraint2_2592  1
    RHS1      constraint2_2593  1
    RHS1      constraint2_3160  1
    RHS1      constraint2_3161  1
    RHS1      constraint2_3162  1
    RHS1      constraint2_3163  1
    RHS1      constraint2_3610  1
    RHS1      constraint2_3611  1
    RHS1      constraint2_3612  1
    RHS1      constraint2_3613  1
    RHS1      constraint2_850  1
    RHS1      constraint2_851  1
    RHS1      constraint2_852  1
    RHS1      constraint2_853  1
BOUNDS
 UP BND1      Z_206_0_0  1
 UP BND1      Z_206_0_1  1
 UP BND1      Z_206_0_2  1
 UP BND1      Z_206_0_3  1
 UP BND1      Z_206_0_4  1
 UP BND1      Z_206_1_0  1
 UP BND1      Z_206_1_1  1
 UP BND1      Z_206_1_2  1
 UP BND1      Z_206_1_3  1
 UP BND1      Z_206_1_4  1
 UP BND1      Z_206_2_0  1
 UP BND1      Z_206_2_1  1
 UP BND1      Z_206_2_2  1
 UP BND1      Z_206_2_3  1
 UP BND1      Z_206_2_4  1
 UP BND1      Z_40_0_0  1
 UP BND1      Z_40_0_1  1
 UP BND1      Z_40_0_2  1
 UP BND1      Z_40_0_3  1
 UP BND1      Z_40_0_4  1
 UP BND1      Z_259_0_0  1
 UP BND1      Z_259_0_1  1
 UP BND1      Z_259_0_2  1
 UP BND1      Z_259_0_3  1
 UP BND1      Z_259_0_4  1
 UP BND1      Z_316_0_0  1
 UP BND1      Z_316_0_1  1
 UP BND1      Z_316_0_2  1
 UP BND1      Z_316_0_3  1
 UP BND1      Z_316_0_4  1
 UP BND1      Z_361_0_0  1
 UP BND1      Z_361_0_1  1
 UP BND1      Z_361_0_2  1
 UP BND1      Z_361_0_3  1
 UP BND1      Z_361_0_4  1
 UP BND1      Z_85_1_0  1
 UP BND1      Z_85_1_1  1
 UP BND1      Z_85_1_2  1
 UP BND1      Z_85_1_3  1
 UP BND1      Z_85_1_4  1
 UP BND1      Z_85_0_0  1
 UP BND1      Z_85_0_1  1
 UP BND1      Z_85_0_2  1
 UP BND1      Z_85_0_3  1
 UP BND1      Z_85_0_4  1
QUADOBJ
    Z_206_0_0  Z_40_0_0  -6.4607818087083439e-04
    Z_206_0_0  Z_259_0_0  -1.6741509446806139e-02
    Z_206_0_0  Z_316_0_0  -9.0204823161658967e-02
    Z_206_0_0  Z_361_0_0  -3.8592107177184490e-02
    Z_206_0_0  Z_85_1_0  -1.9999999999999996e-01
    Z_206_0_0  Z_85_0_0  -4.1387656676603289e-02
    Z_206_0_1  Z_40_0_1  -6.4607818087083439e-04
    Z_206_0_1  Z_259_0_1  -1.6741509446806139e-02
    Z_206_0_1  Z_316_0_1  -9.0204823161658967e-02
    Z_206_0_1  Z_361_0_1  -3.8592107177184490e-02
    Z_206_0_1  Z_85_1_1  -1.9999999999999996e-01
    Z_206_0_1  Z_85_0_1  -4.1387656676603289e-02
    Z_206_0_2  Z_40_0_2  -6.4607818087083439e-04
    Z_206_0_2  Z_259_0_2  -1.6741509446806139e-02
    Z_206_0_2  Z_316_0_2  -9.0204823161658967e-02
    Z_206_0_2  Z_361_0_2  -3.8592107177184490e-02
    Z_206_0_2  Z_85_1_2  -1.9999999999999996e-01
    Z_206_0_2  Z_85_0_2  -4.1387656676603289e-02
    Z_206_0_3  Z_40_0_3  -6.4607818087083439e-04
    Z_206_0_3  Z_259_0_3  -1.6741509446806139e-02
    Z_206_0_3  Z_316_0_3  -9.0204823161658967e-02
    Z_206_0_3  Z_361_0_3  -3.8592107177184490e-02
    Z_206_0_3  Z_85_1_3  -1.9999999999999996e-01
    Z_206_0_3  Z_85_0_3  -4.1387656676603289e-02
    Z_206_0_4  Z_40_0_4  -6.4607818087083439e-04
    Z_206_0_4  Z_259_0_4  -1.6741509446806139e-02
    Z_206_0_4  Z_316_0_4  -9.0204823161658967e-02
    Z_206_0_4  Z_361_0_4  -3.8592107177184490e-02
    Z_206_0_4  Z_85_1_4  -1.9999999999999996e-01
    Z_206_0_4  Z_85_0_4  -4.1387656676603289e-02
    Z_206_1_0  Z_259_0_0  -3.3144598885268370e-02
    Z_206_1_0  Z_316_0_0  -3.0188814136178813e-02
    Z_206_1_0  Z_361_0_0  -3.0188814136178813e-02
    Z_206_1_0  Z_85_0_0  -5.9514487489793239e-02
    Z_206_1_1  Z_259_0_1  -3.3144598885268370e-02
    Z_206_1_1  Z_316_0_1  -3.0188814136178813e-02
    Z_206_1_1  Z_361_0_1  -3.0188814136178813e-02
    Z_206_1_1  Z_85_0_1  -5.9514487489793239e-02
    Z_206_1_2  Z_259_0_2  -3.3144598885268370e-02
    Z_206_1_2  Z_316_0_2  -3.0188814136178813e-02
    Z_206_1_2  Z_361_0_2  -3.0188814136178813e-02
    Z_206_1_2  Z_85_0_2  -5.9514487489793239e-02
    Z_206_1_3  Z_259_0_3  -3.3144598885268370e-02
    Z_206_1_3  Z_316_0_3  -3.0188814136178813e-02
    Z_206_1_3  Z_361_0_3  -3.0188814136178813e-02
    Z_206_1_3  Z_85_0_3  -5.9514487489793239e-02
    Z_206_1_4  Z_259_0_4  -3.3144598885268370e-02
    Z_206_1_4  Z_316_0_4  -3.0188814136178813e-02
    Z_206_1_4  Z_361_0_4  -3.0188814136178813e-02
    Z_206_1_4  Z_85_0_4  -5.9514487489793239e-02
    Z_206_2_0  Z_40_0_0  -2.4362363077666330e-03
    Z_206_2_0  Z_259_0_0  -7.1595515983345947e-03
    Z_206_2_0  Z_316_0_0  -1.1229549292040117e-01
    Z_206_2_0  Z_361_0_0  -8.7704507079598787e-02
    Z_206_2_0  Z_85_0_0  -8.7704507079598787e-02
    Z_206_2_1  Z_40_0_1  -2.4362363077666330e-03
    Z_206_2_1  Z_259_0_1  -7.1595515983345947e-03
    Z_206_2_1  Z_316_0_1  -1.1229549292040117e-01
    Z_206_2_1  Z_361_0_1  -8.7704507079598787e-02
    Z_206_2_1  Z_85_0_1  -8.7704507079598787e-02
    Z_206_2_2  Z_40_0_2  -2.4362363077666330e-03
    Z_206_2_2  Z_259_0_2  -7.1595515983345947e-03
    Z_206_2_2  Z_316_0_2  -1.1229549292040117e-01
    Z_206_2_2  Z_361_0_2  -8.7704507079598787e-02
    Z_206_2_2  Z_85_0_2  -8.7704507079598787e-02
    Z_206_2_3  Z_40_0_3  -2.4362363077666330e-03
    Z_206_2_3  Z_259_0_3  -7.1595515983345947e-03
    Z_206_2_3  Z_316_0_3  -1.1229549292040117e-01
    Z_206_2_3  Z_361_0_3  -8.7704507079598787e-02
    Z_206_2_3  Z_85_0_3  -8.7704507079598787e-02
    Z_206_2_4  Z_40_0_4  -2.4362363077666330e-03
    Z_206_2_4  Z_259_0_4  -7.1595515983345947e-03
    Z_206_2_4  Z_316_0_4  -1.1229549292040117e-01
    Z_206_2_4  Z_361_0_4  -8.7704507079598787e-02
    Z_206_2_4  Z_85_0_4  -8.7704507079598787e-02
    Z_40_0_0  Z_316_0_0  -1.5607706039570240e-02
    Z_40_0_0  Z_85_0_0  -9.9634393209805717e-04
    Z_40_0_1  Z_316_0_1  -1.5607706039570240e-02
    Z_40_0_1  Z_85_0_1  -9.9634393209805717e-04
    Z_40_0_2  Z_316_0_2  -1.5607706039570240e-02
    Z_40_0_2  Z_85_0_2  -9.9634393209805717e-04
    Z_40_0_3  Z_316_0_3  -1.5607706039570240e-02
    Z_40_0_3  Z_85_0_3  -9.9634393209805717e-04
    Z_40_0_4  Z_316_0_4  -1.5607706039570240e-02
    Z_40_0_4  Z_85_0_4  -9.9634393209805717e-04
    Z_259_0_0  Z_316_0_0  -5.5339272062614374e-02
    Z_259_0_0  Z_361_0_0  -1.0400330184602627e-01
    Z_259_0_0  Z_85_1_0  -7.4695040226806695e-07
    Z_259_0_0  Z_85_0_0  -6.7099839394760788e-02
    Z_259_0_1  Z_316_0_1  -5.5339272062614374e-02
    Z_259_0_1  Z_361_0_1  -1.0400330184602627e-01
    Z_259_0_1  Z_85_1_1  -7.4695040226806695e-07
    Z_259_0_1  Z_85_0_1  -6.7099839394760788e-02
    Z_259_0_2  Z_316_0_2  -5.5339272062614374e-02
    Z_259_0_2  Z_361_0_2  -1.0400330184602627e-01
    Z_259_0_2  Z_85_1_2  -7.4695040226806695e-07
    Z_259_0_2  Z_85_0_2  -6.7099839394760788e-02
    Z_259_0_3  Z_316_0_3  -5.5339272062614374e-02
    Z_259_0_3  Z_361_0_3  -1.0400330184602627e-01
    Z_259_0_3  Z_85_1_3  -7.4695040226806695e-07
    Z_259_0_3  Z_85_0_3  -6.7099839394760788e-02
    Z_259_0_4  Z_316_0_4  -5.5339272062614374e-02
    Z_259_0_4  Z_361_0_4  -1.0400330184602627e-01
    Z_259_0_4  Z_85_1_4  -7.4695040226806695e-07
    Z_259_0_4  Z_85_0_4  -6.7099839394760788e-02
    Z_316_0_0  Z_361_0_0  -2.7773999003378007e-02
    Z_316_0_0  Z_85_0_0  -2.7773999003378007e-02
    Z_316_0_1  Z_361_0_1  -2.7773999003378007e-02
    Z_316_0_1  Z_85_0_1  -2.7773999003378007e-02
    Z_316_0_2  Z_361_0_2  -2.7773999003378007e-02
    Z_316_0_2  Z_85_0_2  -2.7773999003378007e-02
    Z_316_0_3  Z_361_0_3  -2.7773999003378007e-02
    Z_316_0_3  Z_85_0_3  -2.7773999003378007e-02
    Z_316_0_4  Z_361_0_4  -2.7773999003378007e-02
    Z_316_0_4  Z_85_0_4  -2.7773999003378007e-02
    Z_361_0_0  Z_85_1_0  -2.6177595000085093e-07
    Z_361_0_0  Z_85_0_0  -5.9514487489793239e-02
    Z_361_0_1  Z_85_1_1  -2.6177595000085093e-07
    Z_361_0_1  Z_85_0_1  -5.9514487489793239e-02
    Z_361_0_2  Z_85_1_2  -2.6177595000085093e-07
    Z_361_0_2  Z_85_0_2  -5.9514487489793239e-02
    Z_361_0_3  Z_85_1_3  -2.6177595000085093e-07
    Z_361_0_3  Z_85_0_3  -5.9514487489793239e-02
    Z_361_0_4  Z_85_1_4  -2.6177595000085093e-07
    Z_361_0_4  Z_85_0_4  -5.9514487489793239e-02
ENDATA
